c Standarized MaxSat Instance
c{
c "sha1sum": "e76adf6fa97e5220ded741176bcb2e6246943a45",
c "nvars": 60,
c "ncls": 1000,
c "nhards": 0,
c "nhard_len_stats":
c    { "min": 0, "max": 0, "ave": 0.00,
c      "stddev": 0.00 },
c "nsofts": 1000,
c "nsoft_len_stats":
c    { "min": 2, "max": 2, "ave": 2.00,
c      "stddev": 0.00 },
c "nsoft_wts": 10,
c "soft_wt_stats":
c    { "min": 1, "max": 10, "ave": 5.55,
c      "stddev": 2.83 }
c}
c------------------------------------------------------------
c Generated after 1 tries
c Graph with 60 nodes and 500 edges, Max edges:1770
p wcnf 60 1000 5555
9 1 10 0
9 -1 -10 0
4 1 13 0
4 -1 -13 0
8 1 14 0
8 -1 -14 0
8 1 15 0
8 -1 -15 0
10 1 20 0
10 -1 -20 0
2 1 24 0
2 -1 -24 0
4 1 27 0
4 -1 -27 0
8 1 31 0
8 -1 -31 0
3 1 38 0
3 -1 -38 0
6 1 40 0
6 -1 -40 0
5 1 46 0
5 -1 -46 0
7 1 52 0
7 -1 -52 0
4 2 3 0
4 -2 -3 0
6 2 5 0
6 -2 -5 0
10 2 11 0
10 -2 -11 0
10 2 12 0
10 -2 -12 0
7 2 13 0
7 -2 -13 0
8 2 15 0
8 -2 -15 0
2 2 22 0
2 -2 -22 0
7 2 29 0
7 -2 -29 0
1 2 37 0
1 -2 -37 0
3 2 39 0
3 -2 -39 0
2 2 43 0
2 -2 -43 0
9 2 46 0
9 -2 -46 0
2 2 48 0
2 -2 -48 0
5 2 53 0
5 -2 -53 0
2 2 56 0
2 -2 -56 0
2 2 58 0
2 -2 -58 0
10 2 60 0
10 -2 -60 0
3 3 4 0
3 -3 -4 0
6 3 6 0
6 -3 -6 0
9 3 9 0
9 -3 -9 0
7 3 11 0
7 -3 -11 0
3 3 13 0
3 -3 -13 0
7 3 14 0
7 -3 -14 0
6 3 15 0
6 -3 -15 0
5 3 29 0
5 -3 -29 0
10 3 40 0
10 -3 -40 0
3 3 43 0
3 -3 -43 0
8 3 46 0
8 -3 -46 0
6 4 5 0
6 -4 -5 0
8 4 10 0
8 -4 -10 0
5 4 12 0
5 -4 -12 0
9 4 13 0
9 -4 -13 0
3 4 15 0
3 -4 -15 0
4 4 17 0
4 -4 -17 0
9 4 18 0
9 -4 -18 0
10 4 24 0
10 -4 -24 0
1 4 39 0
1 -4 -39 0
10 4 42 0
10 -4 -42 0
6 4 45 0
6 -4 -45 0
1 4 48 0
1 -4 -48 0
2 4 50 0
2 -4 -50 0
7 4 57 0
7 -4 -57 0
9 4 60 0
9 -4 -60 0
4 5 6 0
4 -5 -6 0
1 5 7 0
1 -5 -7 0
1 5 14 0
1 -5 -14 0
5 5 16 0
5 -5 -16 0
1 5 24 0
1 -5 -24 0
3 5 28 0
3 -5 -28 0
10 5 31 0
10 -5 -31 0
10 5 34 0
10 -5 -34 0
9 5 35 0
9 -5 -35 0
3 5 38 0
3 -5 -38 0
6 5 46 0
6 -5 -46 0
4 5 47 0
4 -5 -47 0
8 5 50 0
8 -5 -50 0
6 5 53 0
6 -5 -53 0
7 6 12 0
7 -6 -12 0
6 6 13 0
6 -6 -13 0
1 6 16 0
1 -6 -16 0
5 6 27 0
5 -6 -27 0
10 6 33 0
10 -6 -33 0
10 6 34 0
10 -6 -34 0
8 6 44 0
8 -6 -44 0
3 6 51 0
3 -6 -51 0
8 6 59 0
8 -6 -59 0
7 7 9 0
7 -7 -9 0
4 7 20 0
4 -7 -20 0
7 7 21 0
7 -7 -21 0
2 7 22 0
2 -7 -22 0
5 7 28 0
5 -7 -28 0
9 7 29 0
9 -7 -29 0
9 7 32 0
9 -7 -32 0
4 7 39 0
4 -7 -39 0
3 7 41 0
3 -7 -41 0
9 7 42 0
9 -7 -42 0
4 7 44 0
4 -7 -44 0
7 7 46 0
7 -7 -46 0
10 7 48 0
10 -7 -48 0
6 7 49 0
6 -7 -49 0
7 7 50 0
7 -7 -50 0
9 8 19 0
9 -8 -19 0
5 8 22 0
5 -8 -22 0
10 8 24 0
10 -8 -24 0
4 8 25 0
4 -8 -25 0
9 8 29 0
9 -8 -29 0
7 8 31 0
7 -8 -31 0
10 8 32 0
10 -8 -32 0
5 8 37 0
5 -8 -37 0
3 8 46 0
3 -8 -46 0
10 8 48 0
10 -8 -48 0
10 8 49 0
10 -8 -49 0
2 8 51 0
2 -8 -51 0
9 8 56 0
9 -8 -56 0
7 8 59 0
7 -8 -59 0
5 9 15 0
5 -9 -15 0
7 9 19 0
7 -9 -19 0
3 9 20 0
3 -9 -20 0
8 9 26 0
8 -9 -26 0
4 9 29 0
4 -9 -29 0
5 9 31 0
5 -9 -31 0
3 9 32 0
3 -9 -32 0
2 9 37 0
2 -9 -37 0
3 9 43 0
3 -9 -43 0
6 9 44 0
6 -9 -44 0
5 9 45 0
5 -9 -45 0
2 9 48 0
2 -9 -48 0
10 9 51 0
10 -9 -51 0
2 9 60 0
2 -9 -60 0
2 10 18 0
2 -10 -18 0
5 10 22 0
5 -10 -22 0
8 10 25 0
8 -10 -25 0
10 10 33 0
10 -10 -33 0
10 10 34 0
10 -10 -34 0
7 10 36 0
7 -10 -36 0
4 10 38 0
4 -10 -38 0
8 10 40 0
8 -10 -40 0
4 10 45 0
4 -10 -45 0
3 10 47 0
3 -10 -47 0
3 10 49 0
3 -10 -49 0
6 10 50 0
6 -10 -50 0
3 10 53 0
3 -10 -53 0
2 10 57 0
2 -10 -57 0
8 10 59 0
8 -10 -59 0
2 11 15 0
2 -11 -15 0
8 11 17 0
8 -11 -17 0
2 11 20 0
2 -11 -20 0
8 11 25 0
8 -11 -25 0
1 11 28 0
1 -11 -28 0
10 11 32 0
10 -11 -32 0
1 11 33 0
1 -11 -33 0
6 11 35 0
6 -11 -35 0
2 11 38 0
2 -11 -38 0
3 11 44 0
3 -11 -44 0
8 11 51 0
8 -11 -51 0
8 11 52 0
8 -11 -52 0
7 11 53 0
7 -11 -53 0
10 11 55 0
10 -11 -55 0
7 11 58 0
7 -11 -58 0
8 11 59 0
8 -11 -59 0
1 12 15 0
1 -12 -15 0
2 12 17 0
2 -12 -17 0
6 12 20 0
6 -12 -20 0
1 12 21 0
1 -12 -21 0
1 12 24 0
1 -12 -24 0
3 12 27 0
3 -12 -27 0
5 12 33 0
5 -12 -33 0
9 12 34 0
9 -12 -34 0
6 12 35 0
6 -12 -35 0
8 12 37 0
8 -12 -37 0
1 12 43 0
1 -12 -43 0
2 12 47 0
2 -12 -47 0
10 12 49 0
10 -12 -49 0
3 12 50 0
3 -12 -50 0
9 13 21 0
9 -13 -21 0
2 13 22 0
2 -13 -22 0
10 13 30 0
10 -13 -30 0
1 13 33 0
1 -13 -33 0
9 13 36 0
9 -13 -36 0
1 13 40 0
1 -13 -40 0
1 13 42 0
1 -13 -42 0
10 13 43 0
10 -13 -43 0
6 13 45 0
6 -13 -45 0
2 13 46 0
2 -13 -46 0
2 13 54 0
2 -13 -54 0
4 13 55 0
4 -13 -55 0
10 13 58 0
10 -13 -58 0
9 14 16 0
9 -14 -16 0
4 14 19 0
4 -14 -19 0
6 14 30 0
6 -14 -30 0
6 14 33 0
6 -14 -33 0
5 14 35 0
5 -14 -35 0
7 14 42 0
7 -14 -42 0
1 14 46 0
1 -14 -46 0
6 14 48 0
6 -14 -48 0
8 15 19 0
8 -15 -19 0
4 15 23 0
4 -15 -23 0
10 15 25 0
10 -15 -25 0
6 15 28 0
6 -15 -28 0
9 15 32 0
9 -15 -32 0
8 15 46 0
8 -15 -46 0
7 15 48 0
7 -15 -48 0
1 15 55 0
1 -15 -55 0
8 16 18 0
8 -16 -18 0
9 16 19 0
9 -16 -19 0
10 16 21 0
10 -16 -21 0
9 16 30 0
9 -16 -30 0
9 16 33 0
9 -16 -33 0
10 16 46 0
10 -16 -46 0
8 16 47 0
8 -16 -47 0
10 16 52 0
10 -16 -52 0
10 16 59 0
10 -16 -59 0
7 17 22 0
7 -17 -22 0
5 17 23 0
5 -17 -23 0
2 17 24 0
2 -17 -24 0
9 17 31 0
9 -17 -31 0
9 17 37 0
9 -17 -37 0
1 17 42 0
1 -17 -42 0
7 17 48 0
7 -17 -48 0
3 17 50 0
3 -17 -50 0
7 17 55 0
7 -17 -55 0
3 17 56 0
3 -17 -56 0
8 17 58 0
8 -17 -58 0
4 17 59 0
4 -17 -59 0
4 17 60 0
4 -17 -60 0
3 18 19 0
3 -18 -19 0
1 18 21 0
1 -18 -21 0
7 18 23 0
7 -18 -23 0
3 18 33 0
3 -18 -33 0
7 18 35 0
7 -18 -35 0
6 18 49 0
6 -18 -49 0
10 18 53 0
10 -18 -53 0
3 18 60 0
3 -18 -60 0
6 19 20 0
6 -19 -20 0
8 19 26 0
8 -19 -26 0
2 19 27 0
2 -19 -27 0
5 19 28 0
5 -19 -28 0
6 19 31 0
6 -19 -31 0
10 19 34 0
10 -19 -34 0
5 19 35 0
5 -19 -35 0
4 19 36 0
4 -19 -36 0
9 19 40 0
9 -19 -40 0
5 19 41 0
5 -19 -41 0
1 19 42 0
1 -19 -42 0
4 19 49 0
4 -19 -49 0
6 19 50 0
6 -19 -50 0
9 19 51 0
9 -19 -51 0
3 19 53 0
3 -19 -53 0
7 19 54 0
7 -19 -54 0
5 19 58 0
5 -19 -58 0
5 19 59 0
5 -19 -59 0
4 19 60 0
4 -19 -60 0
8 20 22 0
8 -20 -22 0
2 20 28 0
2 -20 -28 0
7 20 31 0
7 -20 -31 0
1 20 35 0
1 -20 -35 0
5 20 36 0
5 -20 -36 0
7 20 42 0
7 -20 -42 0
7 20 44 0
7 -20 -44 0
7 20 48 0
7 -20 -48 0
4 20 50 0
4 -20 -50 0
2 20 56 0
2 -20 -56 0
7 21 25 0
7 -21 -25 0
7 21 32 0
7 -21 -32 0
8 21 34 0
8 -21 -34 0
4 21 36 0
4 -21 -36 0
8 21 40 0
8 -21 -40 0
3 21 42 0
3 -21 -42 0
10 21 52 0
10 -21 -52 0
7 21 53 0
7 -21 -53 0
7 21 55 0
7 -21 -55 0
3 21 56 0
3 -21 -56 0
6 21 57 0
6 -21 -57 0
1 21 58 0
1 -21 -58 0
3 21 60 0
3 -21 -60 0
9 22 24 0
9 -22 -24 0
7 22 29 0
7 -22 -29 0
1 22 33 0
1 -22 -33 0
2 22 34 0
2 -22 -34 0
4 22 35 0
4 -22 -35 0
6 22 36 0
6 -22 -36 0
6 22 37 0
6 -22 -37 0
7 22 38 0
7 -22 -38 0
3 22 39 0
3 -22 -39 0
8 22 41 0
8 -22 -41 0
3 22 44 0
3 -22 -44 0
4 22 49 0
4 -22 -49 0
2 22 50 0
2 -22 -50 0
10 22 51 0
10 -22 -51 0
1 22 54 0
1 -22 -54 0
9 22 59 0
9 -22 -59 0
4 23 32 0
4 -23 -32 0
2 23 34 0
2 -23 -34 0
5 23 37 0
5 -23 -37 0
10 23 40 0
10 -23 -40 0
10 23 43 0
10 -23 -43 0
8 23 47 0
8 -23 -47 0
7 23 49 0
7 -23 -49 0
2 23 52 0
2 -23 -52 0
7 23 54 0
7 -23 -54 0
4 23 55 0
4 -23 -55 0
8 23 57 0
8 -23 -57 0
10 23 59 0
10 -23 -59 0
10 23 60 0
10 -23 -60 0
9 24 26 0
9 -24 -26 0
3 24 33 0
3 -24 -33 0
8 24 38 0
8 -24 -38 0
6 24 40 0
6 -24 -40 0
3 24 42 0
3 -24 -42 0
10 24 43 0
10 -24 -43 0
10 24 44 0
10 -24 -44 0
9 24 45 0
9 -24 -45 0
5 24 53 0
5 -24 -53 0
6 24 56 0
6 -24 -56 0
2 25 26 0
2 -25 -26 0
3 25 27 0
3 -25 -27 0
9 25 30 0
9 -25 -30 0
5 25 31 0
5 -25 -31 0
5 25 32 0
5 -25 -32 0
9 25 36 0
9 -25 -36 0
5 25 38 0
5 -25 -38 0
3 25 44 0
3 -25 -44 0
2 25 46 0
2 -25 -46 0
7 25 47 0
7 -25 -47 0
8 25 49 0
8 -25 -49 0
2 25 51 0
2 -25 -51 0
7 25 53 0
7 -25 -53 0
5 25 55 0
5 -25 -55 0
9 26 27 0
9 -26 -27 0
8 26 31 0
8 -26 -31 0
2 26 35 0
2 -26 -35 0
3 26 40 0
3 -26 -40 0
5 26 46 0
5 -26 -46 0
2 26 50 0
2 -26 -50 0
2 26 51 0
2 -26 -51 0
4 26 52 0
4 -26 -52 0
4 26 56 0
4 -26 -56 0
10 26 57 0
10 -26 -57 0
10 27 30 0
10 -27 -30 0
7 27 31 0
7 -27 -31 0
9 27 34 0
9 -27 -34 0
9 27 39 0
9 -27 -39 0
5 27 42 0
5 -27 -42 0
4 27 43 0
4 -27 -43 0
4 27 45 0
4 -27 -45 0
7 27 49 0
7 -27 -49 0
7 27 50 0
7 -27 -50 0
3 27 53 0
3 -27 -53 0
2 27 57 0
2 -27 -57 0
1 27 59 0
1 -27 -59 0
2 28 32 0
2 -28 -32 0
7 28 34 0
7 -28 -34 0
4 28 35 0
4 -28 -35 0
3 28 36 0
3 -28 -36 0
4 28 42 0
4 -28 -42 0
1 28 45 0
1 -28 -45 0
5 28 59 0
5 -28 -59 0
10 28 60 0
10 -28 -60 0
6 29 30 0
6 -29 -30 0
3 29 33 0
3 -29 -33 0
7 29 36 0
7 -29 -36 0
8 29 37 0
8 -29 -37 0
5 29 42 0
5 -29 -42 0
2 29 43 0
2 -29 -43 0
9 29 47 0
9 -29 -47 0
7 29 49 0
7 -29 -49 0
6 29 53 0
6 -29 -53 0
3 29 54 0
3 -29 -54 0
6 29 57 0
6 -29 -57 0
5 30 31 0
5 -30 -31 0
9 30 34 0
9 -30 -34 0
4 30 35 0
4 -30 -35 0
3 30 40 0
3 -30 -40 0
4 30 41 0
4 -30 -41 0
8 30 42 0
8 -30 -42 0
7 30 43 0
7 -30 -43 0
10 30 51 0
10 -30 -51 0
4 30 52 0
4 -30 -52 0
9 30 53 0
9 -30 -53 0
2 30 57 0
2 -30 -57 0
5 31 32 0
5 -31 -32 0
1 31 33 0
1 -31 -33 0
8 31 37 0
8 -31 -37 0
8 31 39 0
8 -31 -39 0
3 31 41 0
3 -31 -41 0
2 31 44 0
2 -31 -44 0
9 31 54 0
9 -31 -54 0
8 31 59 0
8 -31 -59 0
1 31 60 0
1 -31 -60 0
5 32 33 0
5 -32 -33 0
10 32 36 0
10 -32 -36 0
8 32 37 0
8 -32 -37 0
3 32 44 0
3 -32 -44 0
5 32 46 0
5 -32 -46 0
9 32 48 0
9 -32 -48 0
1 32 59 0
1 -32 -59 0
1 33 36 0
1 -33 -36 0
4 33 40 0
4 -33 -40 0
4 33 49 0
4 -33 -49 0
7 33 51 0
7 -33 -51 0
9 33 54 0
9 -33 -54 0
2 33 56 0
2 -33 -56 0
1 33 58 0
1 -33 -58 0
1 34 36 0
1 -34 -36 0
5 34 40 0
5 -34 -40 0
8 34 42 0
8 -34 -42 0
7 34 48 0
7 -34 -48 0
5 34 49 0
5 -34 -49 0
2 34 51 0
2 -34 -51 0
6 34 58 0
6 -34 -58 0
6 34 59 0
6 -34 -59 0
6 35 36 0
6 -35 -36 0
6 35 37 0
6 -35 -37 0
4 35 40 0
4 -35 -40 0
4 35 41 0
4 -35 -41 0
9 35 43 0
9 -35 -43 0
5 35 45 0
5 -35 -45 0
2 35 49 0
2 -35 -49 0
7 35 50 0
7 -35 -50 0
6 35 51 0
6 -35 -51 0
7 35 52 0
7 -35 -52 0
6 35 54 0
6 -35 -54 0
3 36 37 0
3 -36 -37 0
9 36 43 0
9 -36 -43 0
1 36 49 0
1 -36 -49 0
1 36 50 0
1 -36 -50 0
10 36 52 0
10 -36 -52 0
2 36 54 0
2 -36 -54 0
5 37 43 0
5 -37 -43 0
3 37 44 0
3 -37 -44 0
9 37 47 0
9 -37 -47 0
3 37 49 0
3 -37 -49 0
4 37 52 0
4 -37 -52 0
9 37 56 0
9 -37 -56 0
4 38 40 0
4 -38 -40 0
9 38 46 0
9 -38 -46 0
7 38 53 0
7 -38 -53 0
1 38 55 0
1 -38 -55 0
3 38 57 0
3 -38 -57 0
8 38 60 0
8 -38 -60 0
7 39 40 0
7 -39 -40 0
9 39 43 0
9 -39 -43 0
4 39 53 0
4 -39 -53 0
3 39 54 0
3 -39 -54 0
2 39 55 0
2 -39 -55 0
7 39 56 0
7 -39 -56 0
2 39 60 0
2 -39 -60 0
7 40 41 0
7 -40 -41 0
8 40 45 0
8 -40 -45 0
8 40 47 0
8 -40 -47 0
3 40 50 0
3 -40 -50 0
5 40 51 0
5 -40 -51 0
4 40 59 0
4 -40 -59 0
5 41 42 0
5 -41 -42 0
3 41 43 0
3 -41 -43 0
4 41 46 0
4 -41 -46 0
6 41 51 0
6 -41 -51 0
2 41 57 0
2 -41 -57 0
6 41 58 0
6 -41 -58 0
1 42 45 0
1 -42 -45 0
4 42 47 0
4 -42 -47 0
4 42 48 0
4 -42 -48 0
4 42 50 0
4 -42 -50 0
8 42 60 0
8 -42 -60 0
3 43 47 0
3 -43 -47 0
7 43 48 0
7 -43 -48 0
6 43 53 0
6 -43 -53 0
10 43 55 0
10 -43 -55 0
7 44 49 0
7 -44 -49 0
9 44 51 0
9 -44 -51 0
7 44 53 0
7 -44 -53 0
4 44 54 0
4 -44 -54 0
7 45 50 0
7 -45 -50 0
1 45 53 0
1 -45 -53 0
6 45 54 0
6 -45 -54 0
9 45 60 0
9 -45 -60 0
7 46 49 0
7 -46 -49 0
7 46 50 0
7 -46 -50 0
6 46 52 0
6 -46 -52 0
5 46 53 0
5 -46 -53 0
4 46 54 0
4 -46 -54 0
8 46 56 0
8 -46 -56 0
9 46 58 0
9 -46 -58 0
7 47 48 0
7 -47 -48 0
2 47 51 0
2 -47 -51 0
1 47 52 0
1 -47 -52 0
1 48 56 0
1 -48 -56 0
7 49 51 0
7 -49 -51 0
2 49 53 0
2 -49 -53 0
7 49 58 0
7 -49 -58 0
8 50 51 0
8 -50 -51 0
6 50 57 0
6 -50 -57 0
1 51 52 0
1 -51 -52 0
1 51 59 0
1 -51 -59 0
4 51 60 0
4 -51 -60 0
3 52 53 0
3 -52 -53 0
7 52 59 0
7 -52 -59 0
9 53 55 0
9 -53 -55 0
2 53 57 0
2 -53 -57 0
4 53 58 0
4 -53 -58 0
7 54 55 0
7 -54 -55 0
9 54 60 0
9 -54 -60 0
7 55 56 0
7 -55 -56 0
4 56 57 0
4 -56 -57 0
9 56 59 0
9 -56 -59 0
2 56 60 0
2 -56 -60 0
2 58 59 0
2 -58 -59 0
6 59 60 0
6 -59 -60 0
